152 5
10 10 10 10 10 

0 0 0 0 0 0 1 2 
0 0 0 0 0 0 4 3 4 6 7 
7 0 3 0 0 0 1 5 
4 0 5 0 0 0 1 5 
6 0 10 0 0 0 3 10 9 8 
1 0 10 0 0 0 2 10 8 
10 0 5 0 0 0 2 9 8 
3 0 10 0 0 0 1 11 
5 0 8 0 0 0 1 11 
7 0 6 0 0 0 1 11 
8 0 9 0 0 0 1 12 
7 0 9 0 0 0 1 13 
0 0 0 0 0 0 1 14 
0 0 0 0 0 0 2 15 17 
10 0 3 0 0 0 1 16 
3 0 10 0 0 0 2 21 18 
8 0 9 0 0 0 2 21 19 
3 0 8 0 0 0 3 24 22 20 
1 0 10 0 0 0 1 20 
6 0 4 0 0 0 1 23 
1 0 7 0 0 0 1 24 
4 0 9 0 0 0 1 23 
4 0 8 0 0 0 1 25 
1 0 7 0 0 0 1 25 
0 0 0 0 0 0 1 26 
0 0 0 0 0 0 4 27 28 30 31 
3 0 0 2 0 0 2 36 29 
3 0 0 10 0 0 2 36 29 
2 0 0 8 0 0 2 35 32 
6 0 0 8 0 0 2 35 32 
1 0 0 8 0 0 2 35 32 
7 0 0 7 0 0 1 33 
5 0 0 6 0 0 1 34 
9 0 0 10 0 0 1 37 
3 0 0 10 0 0 1 37 
5 0 0 6 0 0 1 37 
0 0 0 0 0 0 4 38 60 72 94 
0 0 0 0 0 0 2 39 58 
7 0 0 4 5 0 2 40 108 
5 0 0 6 8 0 2 43 41 
2 0 0 5 9 0 1 42 
7 0 0 10 10 0 2 52 44 
3 0 0 5 6 0 1 44 
1 0 0 8 6 0 4 50 49 47 45 
8 0 0 9 7 0 1 46 
9 0 0 9 8 0 2 56 48 
8 0 0 10 6 0 2 56 48 
10 0 0 7 10 0 3 55 54 51 
10 0 0 9 10 0 2 55 51 
1 0 0 10 10 0 2 54 53 
5 0 0 7 6 0 1 53 
2 0 0 6 5 0 1 57 
7 0 0 7 10 0 1 59 
7 0 0 8 10 0 1 59 
3 0 0 8 8 0 1 59 
8 0 0 9 3 0 1 59 
7 0 0 4 4 0 1 59 
8 0 0 9 9 0 1 59 
0 0 0 0 0 0 1 152 
0 0 0 0 0 0 3 61 69 70 
6 0 0 0 0 4 4 68 67 65 62 
7 0 0 0 0 3 1 63 
4 0 0 0 0 8 2 64 143 
8 0 0 0 0 10 1 66 
3 0 0 0 0 10 1 66 
10 0 0 0 0 6 1 71 
6 0 0 0 0 10 1 71 
5 0 0 0 0 10 1 71 
7 0 0 0 0 4 1 71 
9 0 0 0 0 10 1 71 
0 0 0 0 0 0 3 116 128 140 
0 0 0 0 0 0 3 73 76 79 
8 0 3 0 0 8 3 81 74 106 
7 0 8 0 0 2 2 92 75 
1 0 7 0 0 10 2 82 77 
7 0 8 0 0 5 4 88 87 82 81 
7 0 10 0 0 7 1 78 
9 0 8 0 0 7 3 91 87 80 
5 0 4 0 0 8 2 81 80 
5 0 10 0 0 8 3 90 85 83 
10 0 10 0 0 10 2 90 85 
9 0 8 0 0 5 1 83 
9 0 5 0 0 4 1 84 
7 0 10 0 0 8 1 86 
10 0 10 0 0 6 1 86 
5 0 7 0 0 8 1 89 
3 0 2 0 0 10 1 90 
5 0 9 0 0 9 1 91 
5 0 7 0 0 5 1 93 
7 0 8 0 0 10 1 93 
6 0 7 0 0 10 1 93 
6 0 9 0 0 10 1 93 
0 0 0 0 0 0 1 152 
0 0 0 0 0 0 4 95 112 113 114 
9 0 0 4 0 3 1 96 
3 0 0 6 0 3 4 111 110 109 97 
9 0 0 5 0 9 2 108 98 
1 0 0 9 0 9 2 107 99 
10 0 0 8 0 10 4 106 105 100 132 
1 0 0 6 0 5 1 101 
9 0 0 9 0 7 1 102 
2 0 0 10 0 10 1 103 
2 0 0 10 0 10 1 104 
7 0 0 9 0 10 1 115 
8 0 0 10 0 10 1 115 
2 0 0 9 0 4 1 115 
4 0 0 9 0 5 1 115 
6 0 0 6 0 4 1 115 
9 0 0 8 0 10 1 115 
10 0 0 6 0 9 1 115 
9 0 0 10 0 7 1 115 
1 0 0 6 0 7 1 115 
9 0 0 4 0 9 1 115 
3 0 0 6 0 9 1 115 
0 0 0 0 0 0 1 152 
0 0 0 0 0 0 2 117 118 
2 0 5 0 0 0 2 120 119 
9 0 8 0 0 0 2 121 120 
8 0 4 0 0 0 3 126 125 121 
8 0 9 0 0 0 4 126 125 124 123 
4 0 7 0 0 0 1 122 
8 0 10 0 0 0 2 124 123 
6 0 5 0 0 0 1 127 
2 0 7 0 0 0 1 127 
7 0 10 0 0 0 1 127 
4 0 10 0 0 0 1 127 
0 0 0 0 0 0 1 152 
0 0 0 0 0 0 3 129 133 138 
6 5 0 0 0 0 3 137 136 130 
7 6 0 0 0 0 2 135 131 
8 7 0 0 0 0 1 132 
2 10 0 0 0 0 1 134 
3 6 0 0 0 0 1 134 
9 7 0 0 0 0 1 139 
9 10 0 0 0 0 1 139 
1 8 0 0 0 0 1 139 
10 9 0 0 0 0 1 139 
6 7 0 0 0 0 1 139 
0 0 0 0 0 0 1 152 
0 0 0 0 0 0 2 141 142 
3 4 0 0 0 0 1 143 
6 6 0 0 0 0 1 143 
3 3 0 0 0 0 1 144 
5 9 0 0 0 0 3 147 146 145 
9 9 0 0 0 0 3 150 149 148 
10 10 0 0 0 0 3 150 149 148 
4 10 0 0 0 0 1 148 
2 7 0 0 0 0 1 151 
8 10 0 0 0 0 1 151 
8 7 0 0 0 0 1 151 
0 0 0 0 0 0 1 152 
0 0 0 0 0 0 0 
